(set-option :produce-assignments true)
(set-logic QF_UF)
(declare-const p Bool) 
(declare-const q Bool) 
(declare-const t Bool) 
(declare-const s Bool)
(assert (and 
(or (not s) (not p)) 
(or t (not s) (not p))  
(or (not s) q) 
(or t (not s) q) (not s) 
(or t (not s)) 
(or (not s) (not t) q)  ))
(check-sat)
(get-model)
(exit)